p cnf 560
-8 -176
-9 -179
-10 -182
-11 -185
-12 -188
-13 -191
-14 -194
-15 195
-16 196
-17 197
-18 198
-19 199
-20 200
-21 -9
-21 -10
9 10 21
-22 -11
-22 -12
11 12 22
-23 -13
-23 -14
13 14 23
-24 -15
-24 -16
15 16 24
-25 -17
-25 -18
17 18 25
-26 -19
-26 -20
19 20 26
-27 21
-27 22
-21 -22 27
-28 23
-28 24
-23 -24 28
-29 25
-29 26
-25 -26 29
-30 27
-30 28
-27 -28 30
-31 29
-31 30
-29 -30 31
-32 -8
-32 9
8 -9 32
-33 8
-33 -9
-8 9 33
-34 -32
-34 -33
32 33 34
-35 8
-35 9
-8 -9 35
-36 -8
-36 -34
8 34 36
-37 8
-37 34
-8 -34 37
-38 -36
-38 -37
36 37 38
-39 8
-39 -34
-8 34 39
-40 -35
-40 -39
35 39 40
-41 -9
-41 10
9 -10 41
-42 9
-42 -10
-9 10 42
-43 -41
-43 -42
41 42 43
-44 9
-44 10
-9 -10 44
-45 40
-45 -43
-40 43 45
-46 -40
-46 43
40 -43 46
-47 -45
-47 -46
45 46 47
-48 -40
-48 -43
40 43 48
-49 -44
-49 -48
44 48 49
-50 -10
-50 11
10 -11 50
-51 10
-51 -11
-10 11 51
-52 -50
-52 -51
50 51 52
-53 10
-53 11
-10 -11 53
-54 49
-54 -52
-49 52 54
-55 -49
-55 52
49 -52 55
-56 -54
-56 -55
54 55 56
-57 -49
-57 -52
49 52 57
-58 -53
-58 -57
53 57 58
-59 -11
-59 12
11 -12 59
-60 11
-60 -12
-11 12 60
-61 -59
-61 -60
59 60 61
-62 11
-62 12
-11 -12 62
-63 58
-63 -61
-58 61 63
-64 -58
-64 61
58 -61 64
-65 -63
-65 -64
63 64 65
-66 -58
-66 -61
58 61 66
-67 -62
-67 -66
62 66 67
-68 -12
-68 13
12 -13 68
-69 12
-69 -13
-12 13 69
-70 -68
-70 -69
68 69 70
-71 12
-71 13
-12 -13 71
-72 67
-72 -70
-67 70 72
-73 -67
-73 70
67 -70 73
-74 -72
-74 -73
72 73 74
-75 -67
-75 -70
67 70 75
-76 -71
-76 -75
71 75 76
-77 -13
-77 14
13 -14 77
-78 13
-78 -14
-13 14 78
-79 -77
-79 -78
77 78 79
-80 13
-80 14
-13 -14 80
-81 76
-81 -79
-76 79 81
-82 -76
-82 79
76 -79 82
-83 -81
-83 -82
81 82 83
-84 -76
-84 -79
76 79 84
-85 -80
-85 -84
80 84 85
-86 -14
-86 15
14 -15 86
-87 14
-87 -15
-14 15 87
-88 -86
-88 -87
86 87 88
-89 14
-89 15
-14 -15 89
-90 85
-90 -88
-85 88 90
-91 -85
-91 88
85 -88 91
-92 -90
-92 -91
90 91 92
-93 -85
-93 -88
85 88 93
-94 -89
-94 -93
89 93 94
-95 -15
-95 16
15 -16 95
-96 15
-96 -16
-15 16 96
-97 -95
-97 -96
95 96 97
-98 15
-98 16
-15 -16 98
-99 94
-99 -97
-94 97 99
-100 -94
-100 97
94 -97 100
-101 -99
-101 -100
99 100 101
-102 -94
-102 -97
94 97 102
-103 -98
-103 -102
98 102 103
-104 -16
-104 17
16 -17 104
-105 16
-105 -17
-16 17 105
-106 -104
-106 -105
104 105 106
-107 16
-107 17
-16 -17 107
-108 103
-108 -106
-103 106 108
-109 -103
-109 106
103 -106 109
-110 -108
-110 -109
108 109 110
-111 -103
-111 -106
103 106 111
-112 -107
-112 -111
107 111 112
-113 -17
-113 18
17 -18 113
-114 17
-114 -18
-17 18 114
-115 -113
-115 -114
113 114 115
-116 17
-116 18
-17 -18 116
-117 112
-117 -115
-112 115 117
-118 -112
-118 115
112 -115 118
-119 -117
-119 -118
117 118 119
-120 -112
-120 -115
112 115 120
-121 -116
-121 -120
116 120 121
-122 -18
-122 19
18 -19 122
-123 18
-123 -19
-18 19 123
-124 -122
-124 -123
122 123 124
-125 18
-125 19
-18 -19 125
-126 121
-126 -124
-121 124 126
-127 -121
-127 124
121 -124 127
-128 -126
-128 -127
126 127 128
-129 -121
-129 -124
121 124 129
-130 -125
-130 -129
125 129 130
-131 -19
-131 20
19 -20 131
-132 19
-132 -20
-19 20 132
-133 -131
-133 -132
131 132 133
-134 19
-134 20
-19 -20 134
-135 130
-135 -133
-130 133 135
-136 -130
-136 133
130 -133 136
-137 -135
-137 -136
135 136 137
-138 -130
-138 -133
130 133 138
-139 -134
-139 -138
134 138 139
-140 8
-140 -38
-8 38 140
-141 -8
-141 10
8 -10 141
-142 -140
-142 -141
140 141 142
-143 8
-143 -47
-8 47 143
-144 -8
-144 11
8 -11 144
-145 -143
-145 -144
143 144 145
-146 8
-146 -56
-8 56 146
-147 -8
-147 12
8 -12 147
-148 -146
-148 -147
146 147 148
-149 8
-149 -65
-8 65 149
-150 -8
-150 13
8 -13 150
-151 -149
-151 -150
149 150 151
-152 8
-152 -74
-8 74 152
-153 -8
-153 14
8 -14 153
-154 -152
-154 -153
152 153 154
-155 8
-155 -83
-8 83 155
-156 -8
-156 15
8 -15 156
-157 -155
-157 -156
155 156 157
-158 8
-158 -92
-8 92 158
-159 -8
-159 16
8 -16 159
-160 -158
-160 -159
158 159 160
-161 8
-161 -101
-8 101 161
-162 -8
-162 17
8 -17 162
-163 -161
-163 -162
161 162 163
-164 8
-164 -110
-8 110 164
-165 -8
-165 18
8 -18 165
-166 -164
-166 -165
164 165 166
-167 8
-167 -119
-8 119 167
-168 -8
-168 19
8 -19 168
-169 -167
-169 -168
167 168 169
-170 8
-170 -128
-8 128 170
-171 -8
-171 20
8 -20 171
-172 -170
-172 -171
170 171 172
-173 8
-173 -137
-8 137 173
-174 1
-174 31
-1 -31 174
-175 -31
-175 32
31 -32 175
-176 -174
-176 -175
174 175 176
-177 2
-177 31
-2 -31 177
-178 -31
-178 -142
31 142 178
-179 -177
-179 -178
177 178 179
-180 3
-180 31
-3 -31 180
-181 -31
-181 -145
31 145 181
-182 -180
-182 -181
180 181 182
-183 4
-183 31
-4 -31 183
-184 -31
-184 -148
31 148 184
-185 -183
-185 -184
183 184 185
-186 5
-186 31
-5 -31 186
-187 -31
-187 -151
31 151 187
-188 -186
-188 -187
186 187 188
-189 6
-189 31
-6 -31 189
-190 -31
-190 -154
31 154 190
-191 -189
-191 -190
189 190 191
-192 7
-192 31
-7 -31 192
-193 -31
-193 -157
31 157 193
-194 -192
-194 -193
192 193 194
-195 -31
-195 -160
31 160 195
-196 -31
-196 -163
31 163 196
-197 -31
-197 -166
31 166 197
-198 -31
-198 -169
31 169 198
-199 -31
-199 -172
31 172 199
-200 -31
-200 173
31 -173 200
-201 -20
-201 139
20 -139 201
-202 8
-202 -201
-8 201 202
202
